NAME          DCAP_2_4_3_500_SS358
ROWS
 N  OBJ
 L  CON1
 L  CON2
 L  CON3
 L  CON4
 L  CON5
 L  CON6
 L  CON7
 L  CON8
 L  CON9
 L  CON10
 L  CON11
 L  CON12
 E  CON13
 E  CON14
 E  CON15
 E  CON16
 E  CON17
 E  CON18
 E  CON19
 E  CON20
 E  CON21
 E  CON22
 E  CON23
 E  CON24
COLUMNS
    x[1,1]    OBJ       6.180167      CON1      1.000000    
    x[1,1]    CON7      -1.000000     CON8      -1.000000   
    x[1,1]    CON9      -1.000000   
    x[1,2]    OBJ       6.563535      CON2      1.000000    
    x[1,2]    CON8      -1.000000     CON9      -1.000000   
    x[1,3]    OBJ       7.443064      CON3      1.000000    
    x[1,3]    CON9      -1.000000   
    x[2,1]    OBJ       6.732585      CON4      1.000000    
    x[2,1]    CON10     -1.000000     CON11     -1.000000   
    x[2,1]    CON12     -1.000000   
    x[2,2]    OBJ       5.039546      CON5      1.000000    
    x[2,2]    CON11     -1.000000     CON12     -1.000000   
    x[2,3]    OBJ       6.054841      CON6      1.000000    
    x[2,3]    CON12     -1.000000   
    MARKER    'MARKER'                'INTORG'
    u[1,1]    OBJ       48.076654     CON1      -1.000000   
    u[1,2]    OBJ       20.066487     CON2      -1.000000   
    u[1,3]    OBJ       32.230043     CON3      -1.000000   
    u[2,1]    OBJ       49.996186     CON4      -1.000000   
    u[2,2]    OBJ       49.466655     CON5      -1.000000   
    u[2,3]    OBJ       27.484319     CON6      -1.000000   
    y[1,1,1]  OBJ       9.928816      CON7      0.503784    
    y[1,1,1]  CON13     1.000000    
    y[1,1,2]  OBJ       9.646021      CON8      1.088345    
    y[1,1,2]  CON14     1.000000    
    y[1,1,3]  OBJ       6.476514      CON9      0.611767    
    y[1,1,3]  CON15     1.000000    
    y[1,2,1]  OBJ       7.821128      CON7      1.285830    
    y[1,2,1]  CON16     1.000000    
    y[1,2,2]  OBJ       6.825780      CON8      0.654956    
    y[1,2,2]  CON17     1.000000    
    y[1,2,3]  OBJ       7.183471      CON9      0.503608    
    y[1,2,3]  CON18     1.000000    
    y[1,3,1]  OBJ       7.986585      CON7      1.186998    
    y[1,3,1]  CON19     1.000000    
    y[1,3,2]  OBJ       8.452490      CON8      1.203870    
    y[1,3,2]  CON20     1.000000    
    y[1,3,3]  OBJ       9.976082      CON9      1.236147    
    y[1,3,3]  CON21     1.000000    
    y[1,4,1]  OBJ       6.999962      CON7      1.312989    
    y[1,4,1]  CON22     1.000000    
    y[1,4,2]  OBJ       5.968015      CON8      0.863485    
    y[1,4,2]  CON23     1.000000    
    y[1,4,3]  OBJ       5.927646      CON9      1.465928    
    y[1,4,3]  CON24     1.000000    
    y[2,1,1]  OBJ       7.753554      CON10     0.503784    
    y[2,1,1]  CON13     1.000000    
    y[2,1,2]  OBJ       6.440149      CON11     1.088345    
    y[2,1,2]  CON14     1.000000    
    y[2,1,3]  OBJ       6.331293      CON12     0.611767    
    y[2,1,3]  CON15     1.000000    
    y[2,2,1]  OBJ       7.041926      CON10     1.285830    
    y[2,2,1]  CON16     1.000000    
    y[2,2,2]  OBJ       7.375142      CON11     0.654956    
    y[2,2,2]  CON17     1.000000    
    y[2,2,3]  OBJ       6.904268      CON12     0.503608    
    y[2,2,3]  CON18     1.000000    
    y[2,3,1]  OBJ       5.816520      CON10     1.186998    
    y[2,3,1]  CON19     1.000000    
    y[2,3,2]  OBJ       6.272507      CON11     1.203870    
    y[2,3,2]  CON20     1.000000    
    y[2,3,3]  OBJ       6.473677      CON12     1.236147    
    y[2,3,3]  CON21     1.000000    
    y[2,4,1]  OBJ       7.871671      CON10     1.312989    
    y[2,4,1]  CON22     1.000000    
    y[2,4,2]  OBJ       9.566288      CON11     0.863485    
    y[2,4,2]  CON23     1.000000    
    y[2,4,3]  OBJ       5.461497      CON12     1.465928    
    y[2,4,3]  CON24     1.000000    
    z[1,1]    OBJ       734.559894    CON13     1.000000    
    z[1,2]    OBJ       632.462502    CON14     1.000000    
    z[1,3]    OBJ       860.009462    CON15     1.000000    
    z[2,1]    OBJ       837.069507    CON16     1.000000    
    z[2,2]    OBJ       706.448987    CON17     1.000000    
    z[2,3]    OBJ       739.333142    CON18     1.000000    
    z[3,1]    OBJ       596.344270    CON19     1.000000    
    z[3,2]    OBJ       662.716637    CON20     1.000000    
    z[3,3]    OBJ       939.291396    CON21     1.000000    
    z[4,1]    OBJ       507.781690    CON22     1.000000    
    z[4,2]    OBJ       695.727377    CON23     1.000000    
    z[4,3]    OBJ       873.639875    CON24     1.000000    
    MARKER    'MARKER'                 'INTEND'
RHS
    RHS       CON1      -0.000000     CON2      -0.000000   
    RHS       CON3      -0.000000     CON4      -0.000000   
    RHS       CON5      -0.000000     CON6      -0.000000   
    RHS       CON7      -0.000000     CON8      -0.000000   
    RHS       CON9      -0.000000     CON10     -0.000000   
    RHS       CON11     -0.000000     CON12     -0.000000   
    RHS       CON13     1.000000      CON14     1.000000    
    RHS       CON15     1.000000      CON16     1.000000    
    RHS       CON17     1.000000      CON18     1.000000    
    RHS       CON19     1.000000      CON20     1.000000    
    RHS       CON21     1.000000      CON22     1.000000    
    RHS       CON23     1.000000      CON24     1.000000    
BOUNDS
 BV BOUND     u[1,1]  
 BV BOUND     u[1,2]  
 BV BOUND     u[1,3]  
 BV BOUND     u[2,1]  
 BV BOUND     u[2,2]  
 BV BOUND     u[2,3]  
 BV BOUND     y[1,1,1]
 BV BOUND     y[1,1,2]
 BV BOUND     y[1,1,3]
 BV BOUND     y[1,2,1]
 BV BOUND     y[1,2,2]
 BV BOUND     y[1,2,3]
 BV BOUND     y[1,3,1]
 BV BOUND     y[1,3,2]
 BV BOUND     y[1,3,3]
 BV BOUND     y[1,4,1]
 BV BOUND     y[1,4,2]
 BV BOUND     y[1,4,3]
 BV BOUND     y[2,1,1]
 BV BOUND     y[2,1,2]
 BV BOUND     y[2,1,3]
 BV BOUND     y[2,2,1]
 BV BOUND     y[2,2,2]
 BV BOUND     y[2,2,3]
 BV BOUND     y[2,3,1]
 BV BOUND     y[2,3,2]
 BV BOUND     y[2,3,3]
 BV BOUND     y[2,4,1]
 BV BOUND     y[2,4,2]
 BV BOUND     y[2,4,3]
 BV BOUND     z[1,1]  
 BV BOUND     z[1,2]  
 BV BOUND     z[1,3]  
 BV BOUND     z[2,1]  
 BV BOUND     z[2,2]  
 BV BOUND     z[2,3]  
 BV BOUND     z[3,1]  
 BV BOUND     z[3,2]  
 BV BOUND     z[3,3]  
 BV BOUND     z[4,1]  
 BV BOUND     z[4,2]  
 BV BOUND     z[4,3]  
ENDATA
